8	8
2	91	3	88	0	57	1	97	4	96	7	13	5	88	6	69
4	64	7	73	0	80	2	60	1	40	3	20	6	90	5	3
4	94	2	33	5	8	0	68	1	29	7	25	6	58	3	70
4	48	0	60	7	43	2	84	3	71	6	71	1	85	5	4
1	35	0	40	5	83	4	12	6	44	3	5	7	11	2	80
4	9	2	9	1	37	6	27	5	36	7	68	3	63	0	41
7	52	4	32	0	76	5	58	1	5	6	14	2	31	3	38
5	85	0	69	3	24	6	97	2	77	1	67	7	49	4	63
